&control 
    calculation='scf'
    restart_mode='from_scratch',
    prefix='PrNiO3'
    pseudo_dir = './'
    outdir='tmp'
    verbosity='low'
    tstress=.true.
    tprnfor=.true.
 /
 &system
    ibrav = 0,
    celldm(1) = 1
    nat=20, ntyp=4
    ecutwfc = 30,
    ecutrho = 200,
    occupations = 'smearing',
    smearing = 'gaussian',
    degauss = 0.01,
    nspin = 2,
    starting_magnetization(1) =  1.0,
    starting_magnetization(2) = -1.0
    lda_plus_u = .true.,
    lda_plus_u_kind = 0,
    U_projection_type = 'atomic',
    Hubbard_U(1) = 10.0337,
    Hubbard_U(2) = 10.0337
 /
 &electrons
    electron_maxstep = 100
    conv_thr =  1.d-11
    mixing_mode = 'local-TF'
    mixing_beta = 0.8
     /
ATOMIC_SPECIES
N1u  58.693   ni_pbesol_v1.4.uspp.F.UPF
N1d  58.693   ni_pbesol_v1.4.uspp.F.UPF
O   16.000   O.pbesol-n-kjpaw_psl.0.1.UPF
Pr   140.908  Pr.pbesol_ps.uspp.UPF
CELL_PARAMETERS
  10.22625292        0.00000000        0.00000000
   0.00000000       10.15973456        0.00000000
   0.00000000        0.00000000       14.39272108
ATOMIC_POSITIONS (crystal)
Pr          0.99450000         0.03050000         0.25000000
Pr          0.50550000         0.53050000         0.25000000
Pr          0.00550000         0.96950000         0.75000000
Pr          0.49450000         0.46950000         0.75000000
N1u          0.50000000         0.00000000         0.00000000
N1u         0.00000000         0.50000000         0.50000000
N1d          0.50000000         0.00000000         0.50000000
N1d          0.00000000         0.50000000         0.00000000
O          0.06810000         0.49350000         0.25000000
O          0.43190000         0.99350000         0.25000000
O          0.93190000         0.50650000         0.75000000
O          0.56810000         0.00650000         0.75000000
O          0.71900000         0.28140000         0.03560000
O          0.78100000         0.78140000         0.46440000
O          0.28100000         0.71860000         0.53560000
O          0.21900000         0.21860000         0.96440000
O          0.28100000         0.71860000         0.96440000
O          0.21900000         0.21860000         0.53560000
O          0.71900000         0.28140000         0.46440000
O          0.78100000         0.78140000         0.03560000
K_POINTS {automatic}
 3 3 3 0 0 0
