 &control
    pseudo_dir = './',
    outdir='./'
    prefix='nio',
    verbosity='high'
    tstress = true
    tprnfor = true
    iprint = 1
 /
 &system
    ibrav=  0, celldm(1)=7.88, nat=  4, ntyp= 3
    ecutwfc = 64.0, ecutrho = 625.0,
    occupations='smearing', smearing='gauss', degauss=0.02
    nspin=2,
    starting_magnetization(1)= 0.1,
    starting_magnetization(2)=-0.1
    input_dft = 'XC-000i-000i-101L-130L-000i-000i'
 /
 &electrons
    conv_thr =  1.0d-13
    mixing_beta = 0.25
    diago_full_acc=.true.
 /
CELL_PARAMETERS
1.00 0.50 0.50
0.50 1.00 0.50
0.50 0.50 1.00
ATOMIC_SPECIES
 Ni1  1.  ni_pbe_v1.4.uspp.F.UPF
 Ni2  1.  ni_pbe_v1.4.uspp.F.UPF
 O    1.  o_pbe_v1.2.uspp.F.UPF
ATOMIC_POSITIONS crystal
 Ni1 0.0  0.0  0.0 
 Ni2 0.5  0.5  0.5
 O  0.251 0.251 0.251
 O  0.749 0.749 0.749
K_POINTS automatic
4 4 4 0 0 0
HUBBARD (ortho-atomic)
U Ni1-3d 8.0
U Ni2-3d 8.0
