 &control
    calculation='scf'
    restart_mode='from_scratch',
    prefix='NiO'
    pseudo_dir = './'
    outdir='./'
    verbosity='high'
    tprnfor=.true.
    tstress=.true.
 /
 &system
    ibrav = 0, celldm(1) = 7.88, nat = 4, ntyp = 3,
    ecutwfc = 64.0, ecutrho = 625.0,
    occupations = 'smearing', smearing = 'gauss', degauss = 0.02
    nspin = 2,
    starting_magnetization(1) =  0.2,
    starting_magnetization(2) = -0.2,
    input_dft = 'XC-000i-000i-101L-130L-000i-000i'
 /
 &electrons
    conv_thr =  1.d-13
    mixing_beta = 0.25
    diago_full_acc=.true.
 /
CELL_PARAMETERS {alat}
1.00 0.50 0.50
0.50 1.00 0.50
0.50 0.50 1.00
ATOMIC_SPECIES
 Ni1  1.  ni_pbe_v1.4.uspp.F.UPF
 Ni2  1.  ni_pbe_v1.4.uspp.F.UPF
 O    1.  o_pbe_v1.2.uspp.F.UPF
ATOMIC_POSITIONS {alat}
 Ni1 0.0  0.0  0.0 
 Ni2 0.5  0.5  0.5
 O  0.25 0.25 0.25
 O  0.75 0.75 0.75
K_POINTS automatic
4 4 4 0 0 0
HUBBARD (atomic)
U Ni1-3d 8.0
V Ni1-3d O-2p 1 35 1.000000
V Ni1-3d O-2p 1 27 1.000000
V Ni1-3d O-2p 1 24 1.000000
V Ni1-3d O-2p 1  3 1.000000
V Ni1-3d O-2p 1 56 1.000000
V Ni1-3d O-2p 1 48 1.000000
U Ni2-3d 8.0
V Ni2-3d O-2p 2 64 1.000000
V Ni2-3d O-2p 2 63 1.000000
V Ni2-3d O-2p 2 35 1.000000
V Ni2-3d O-2p 2 88 1.000000
V Ni2-3d O-2p 2  4 1.000000
V Ni2-3d O-2p 2  3 1.000000
